unsat
(define-fun f ((x (_ BitVec 64))) (_ BitVec 64) (im (bvand #b0000000000000000000000000000000000000000000000000000000000000001 (bvnot x)) (ehad (bvand x (shesh x))) (smol x)))
2.73user 0.09system 0:02.83elapsed 99%CPU (0avgtext+0avgdata 178600maxresident)k
0inputs+8outputs (0major+39943minor)pagefaults 0swaps
